max: Z;
Z - p_0 - p_1 - p_2 <= 0;
Z - p_3 - p_4 - p_5 <= 0;
p_0 <= 1.0;
p_0 <= 1.0;
p_1 + p_2 <= 1.0;
p_1 + p_3 <= 1.0;
p_2 + p_4 + p_5 <= 1.0;
p_2 + p_4 <= 1.0;
p_5 <= 1.0;
p_5 <= 1.0;
p_0 >= 0;
p_1 >= 0;
p_2 >= 0;
p_3 >= 0;
p_4 >= 0;
p_5 >= 0;